CPXPARAM_MIP_Cuts_Disjunctive#P15#0#2.009491#0.378626
CPXPARAM_MIP_Cuts_Disjunctive#P15#3#3.057320#0.576057
CPXPARAM_MIP_Cuts_GUBCovers#P17#0#4.526709#0.852918
CPXPARAM_MIP_Cuts_GUBCovers#P17#1#3.021232#0.569257
CPXPARAM_MIP_Cuts_GUBCovers#P17#2#5.307322#1.000000
CPXPARAM_MIP_Cuts_MIRCut#P20#0#4.720168#0.889369
CPXPARAM_MIP_Cuts_MIRCut#P20#1#4.608646#0.868356
CPXPARAM_MIP_Cuts_MIRCut#P20#2#3.416822#0.643794
